 &inputhp
   prefix = 'Ni',
   outdir = './out/',
   nq1 = 2, nq2 = 2, nq3 = 2,
   conv_thr_chi = 1.0d-8,
   iverbosity = 2
 /
