W2K  
&control
  prefix='aiida'
  outdir='./out'
  kcw_iverbosity = 2
  kcw_at_ks=.false.
  read_unitary_matrix = .true.
  calculation = 'wann2kcw'
  mp1 = 2 
  mp2 = 2
  mp3 = 2
/
&wannier
  seedname = 'wann'
  check_ks = .true. 
  num_wann_occ = 5
  num_wann_emp = 5
  have_empty = .true.
  has_disentangle = .true.
/
