&CONTROL
  calculation = 'scf'
  etot_conv_thr =   2.0000000000d-05
  forc_conv_thr =   1.0000000000d-04
  outdir = './out/'
  prefix = 'aiida'
  pseudo_dir = './pseudo'
  tprnfor = .true.
  tstress = .true.
  verbosity = 'high'
/
&SYSTEM
  ecutwfc =   8.0000000000d+01
  ibrav = 0
  nat = 2
  ntyp = 2
  occupations = 'fixed'
  nbnd = 7
  nspin = 2 
  tot_magnetization = 0
/
&ELECTRONS
  conv_thr =   4.0000000000d-10
  electron_maxstep = 80
  mixing_beta =   4.0000000000d-01
/
ATOMIC_SPECIES
F      18.9984032   F.upf
Li     6.941        Li.upf

ATOMIC_POSITIONS angstrom
F        0.0000000000     0.0000000000     2.0135000000
Li       0.0000000000     0.0000000000     0.0000000000

CELL_PARAMETERS angstrom
    0.0000000000     2.0135000000     2.0135000000
    2.0135000000     0.0000000000     2.0135000000
    2.0135000000     2.0135000000     0.0000000000

K_POINTS automatic
12 12 12 0 0 0
