num_bands         =   5
num_wann          =   5
exclude_bands     =   6-25
spin = 'up'

num_iter          = 10000
num_print_cycles  = 10
conv_window = 5
conv_tol = 1e-10

write_u_matrices = .true.
write_xyz = .true.


Begin Atoms_cart
ang
F        0.0000000000     0.0000000000     2.0135000000
Li       0.0000000000     0.0000000000     0.0000000000
End Atoms_cart



Begin Projections     
F: l=0 
F: l=1
Li: l=0 
End Projections       


begin unit_cell_cart
ang
    0.0000000000     2.0135000000     2.0135000000
    2.0135000000     0.0000000000     2.0135000000
    2.0135000000     2.0135000000     0.0000000000
end unit_cell_cart

mp_grid      = 2 2 2  

begin kpoints
  0.00000000  0.00000000  0.00000000
  0.00000000  0.00000000  0.50000000
  0.00000000  0.50000000  0.00000000
  0.00000000  0.50000000  0.50000000
  0.50000000  0.00000000  0.00000000
  0.50000000  0.00000000  0.50000000
  0.50000000  0.50000000  0.00000000
  0.50000000  0.50000000  0.50000000
end kpoints
