&CONTROL
  calculation='scf'
  restart_mode='from_scratch',
  prefix='Si'
  outdir='./out/'
  pseudo_dir = './pseudo/'
  verbosity='high'
 /
&SYSTEM
  ibrav=2,
  celldm(1)=10.263101844
  nat= 2, ntyp= 1,
  ecutwfc = 40.0,
  nbnd=20
  nspin = 2
  tot_magnetization = 0.0
/
&ELECTRONS
  diagonalization='david'
  mixing_mode = 'plain'
  mixing_beta = 0.7
  conv_thr =  0.5d-12
/
ATOMIC_SPECIES
Si 28.085 Si_ONCV_PBE-1.0.upf

ATOMIC_POSITIONS crystal
Si 0.00 0.00 0.00
Si 0.25 0.25 0.25


K_POINTS crystal
8
  0.00000000  0.00000000  0.00000000  1.250000e-01
  0.00000000  0.00000000  0.50000000  1.250000e-01
  0.00000000  0.50000000  0.00000000  1.250000e-01
  0.00000000  0.50000000  0.50000000  1.250000e-01
  0.50000000  0.00000000  0.00000000  1.250000e-01
  0.50000000  0.00000000  0.50000000  1.250000e-01
  0.50000000  0.50000000  0.00000000  1.250000e-01
  0.50000000  0.50000000  0.50000000  1.250000e-01
