num_bands         =   4
num_wann          =   4
exclude_bands     = 5-20
spin              = up
use_ws_distance   = .true.

write_hr = .true.
conv_window = 5
conv_tol = 1D-10
conv_noise_amp = 10000
conv_noise_num = 5

write_xyz = .true.
write_u_matrices = .true.

bands_plot              = .true.
bands_num_points        = 40
begin kpoint_path
G 0.000 0.000 0.000  X 0.500 0.000 0.500
X 0.500 0.000 0.500  U 0.625 0.250 0.625
K 0.375 0.375 0.750  G 0.000 0.000 0.000
G 0.000 0.000 0.000  L 0.500 0.500 0.500
L 0.500 0.500 0.500  W 0.500 0.250 0.750
W 0.500 0.250 0.750  U 0.500 0.000 0.500
end kpoint_path

num_iter          = 100
num_print_cycles  = 10

Begin Atoms_Frac
 Si 0.00 0.00 0.00
 Si 0.25 0.25 0.25
End Atoms_Frac

Begin Projections
f = 0.0, 0.0, 0.0 : sp3
End Projections

begin unit_cell_cart
bohr
-5.1315510  0.00000 5.1315510
 0.00000  5.1315510 5.1315510
-5.1315510  5.1315510 0.00000
end unit_cell_cart

mp_grid      = 2 2 2

begin kpoints
  0.00000000  0.00000000  0.00000000
  0.00000000  0.00000000  0.50000000
  0.00000000  0.50000000  0.00000000
  0.00000000  0.50000000  0.50000000
  0.50000000  0.00000000  0.00000000
  0.50000000  0.00000000  0.50000000
  0.50000000  0.50000000  0.00000000
  0.50000000  0.50000000  0.50000000
end kpoints
