&inputpp
  prefix='Si'
  outdir='./out/'
  seedname = 'Si_emp'
  wan_mode   =  'standalone'
  spin_component = 'up'
/
